VRPTEST 1.0
NAME: S970203-20P
TYPE: VRP
COMMENT: Has two quantities: load and volume
NUM_DEPOTS: 1
NUM_CAPACITIES: 1
NUM_VISITS: 20
NUM_VEHICLES: 10
NUM_LOCATIONS: 21
EDGE_WEIGHT_TYPE: EXPLICIT
EDGE_WEIGHT_FORMAT: FULL_MATRIX
MAX_TIME: 720
CAPACITIES: 1000 
DATA_SECTION
DEPOTS
0
DEMAND_SECTION
1 40
2 17
3 166
4 11
5 576
6 5
7 575
8 58
9 610
10 827
11 561
12 13
13 3
14 210
15 1
16 501
17 558
18 164
19 13
20 981
TIME_WINDOW_SECTION
1 480 960 -1
2 480 960 -1
3 480 960 -1
4 480 960 -1
5 480 960 -1
6 420 480 -1
7 780 840 -1
8 600 660 -1
9 840 900 -1
10 585 645 -1
11 660 720 -1
12 600 660 -1
13 525 585 -1
14 540 600 -1
15 480 960 -1
16 480 960 -1
17 540 600 -1
18 480 540 -1
19 480 960 -1
20 870 930 -1
DURATION_SECTION
1 16.6
2 16.6
3 16.6
4 16.6
5 16.6
6 16.6
7 16.6
8 16.6
9 16.6
10 16.6
11 16.6
12 16.6
13 16.6
14 16.6
15 16.6
16 16.6
17 16.6
18 16.6
19 16.6
20 16.6
LOCATION_COORD_SECTION
1214 -3367 -20883
1215 -3367 -20883
1216 -3007 -21027
1217 -2652 -21195
1218 -2475 -21321
1219 -2475 -21321
1220 -2475 -21321
1221 -2475 -21321
1222 -2475 -21321
1223 -2475 -21321
1224 -2475 -21321
1225 -2372 -21367
1226 -1193 -22500
1227 -1193 -22500
1228 -5305 -18630
1229 -2755 -11618
1230 -4546 -15558
1231 -1944 -21691
1232 -1944 -21691
1233 -1944 -21691
1416 0 0
DEPOT_LOCATION_SECTION
0 1416
VISIT_LOCATION_SECTION
1 1214
2 1215
3 1216
4 1217
5 1218
6 1219
7 1220
8 1221
9 1222
10 1223
11 1224
12 1225
13 1226
14 1227
15 1228
16 1229
17 1230
18 1231
19 1232
20 1233
EDGE_WEIGHT_SECTION
0 0 1 2 2 2 2 2 2 2 2 2 6 6 9 28 17 4 4 4 47 
0 0 1 2 2 2 2 2 2 2 2 2 6 6 9 28 17 4 4 4 47 
1 1 0 1 2 2 2 2 2 2 2 2 6 6 9 28 18 3 3 3 47 
2 2 1 0 0 0 0 0 0 0 0 0 5 5 10 29 19 2 2 2 48 
2 2 2 0 0 0 0 0 0 0 0 0 4 4 11 30 19 2 2 2 49 
2 2 2 0 0 0 0 0 0 0 0 0 4 4 11 30 19 2 2 2 49 
2 2 2 0 0 0 0 0 0 0 0 0 4 4 11 30 19 2 2 2 49 
2 2 2 0 0 0 0 0 0 0 0 0 4 4 11 30 19 2 2 2 49 
2 2 2 0 0 0 0 0 0 0 0 0 4 4 11 30 19 2 2 2 49 
2 2 2 0 0 0 0 0 0 0 0 0 4 4 11 30 19 2 2 2 49 
2 2 2 0 0 0 0 0 0 0 0 0 4 4 11 30 19 2 2 2 49 
2 2 2 0 0 0 0 0 0 0 0 0 4 4 11 30 19 2 2 2 49 
6 6 6 5 4 4 4 4 4 4 4 4 0 0 15 34 23 3 3 3 52 
6 6 6 5 4 4 4 4 4 4 4 4 0 0 15 34 23 3 3 3 52 
9 9 9 10 11 11 11 11 11 11 11 11 15 15 0 20 10 12 12 12 42 
28 28 28 29 30 30 30 30 30 30 30 30 34 34 20 0 10 31 31 31 22 
17 17 18 19 19 19 19 19 19 19 19 19 23 23 10 10 0 21 21 21 33 
4 4 3 2 2 2 2 2 2 2 2 2 3 3 12 31 21 0 0 0 50 
4 4 3 2 2 2 2 2 2 2 2 2 3 3 12 31 21 0 0 0 50 
4 4 3 2 2 2 2 2 2 2 2 2 3 3 12 31 21 0 0 0 50 
47 47 47 48 49 49 49 49 49 49 49 49 52 52 42 22 33 50 50 50 0 
EOF
